%block LATTICE_ABC
20.007604 5.057799 5.188535
89.969881 100.166606 90.000013
%endblock LATTICE_ABC

%block positions_frac
 O    0.141254    0.672807    0.350135
 O    0.358688    0.172852    0.149852
 O    0.358746    0.327193    0.649865
 O    0.141312    0.827148    0.850148
 O    0.237650    0.242467    0.474260
 O    0.262342    0.742409    0.025771
 O    0.262350    0.757533    0.525740
 O    0.237658    0.257591    0.974229
Hf    0.194147    0.952746    0.209961
Hf    0.305861    0.452580    0.289941
Hf    0.305853    0.047254    0.790039
Hf    0.194139    0.547420    0.710059
 O    0.391254    0.672807    0.350135
 O    0.608688    0.172852    0.149852
 O    0.608746    0.327193    0.649865
 O    0.391312    0.827148    0.850148
 O    0.487650    0.242467    0.474260
 O    0.512342    0.742409    0.025771
 O    0.512350    0.757533    0.525740
 O    0.487658    0.257591    0.974229
Hf    0.444147    0.952746    0.209961
Hf    0.555862    0.452580    0.289941
Hf    0.555853    0.047254    0.790039
Hf    0.444139    0.547420    0.710059
 O    0.641254    0.672807    0.350135
 O    0.858688    0.172852    0.149852
 O    0.858746    0.327193    0.649865
 O    0.641312    0.827148    0.850148
 O    0.737650    0.242467    0.474260
 O    0.762342    0.742409    0.025771
 O    0.762350    0.757533    0.525740
 O    0.737658    0.257591    0.974229
Hf    0.694147    0.952746    0.209961
Hf    0.805861    0.452580    0.289941
Hf    0.805853    0.047254    0.790039
Hf    0.694138    0.547420    0.710059
 O    0.891254    0.672807    0.350135
 O    0.891312    0.827148    0.850148
 O    0.987650    0.242467    0.474260
 O    1.012350    0.757533    0.525740
 O    0.987658    0.257591    0.974229
Hf    0.944147    0.952746    0.209961
Hf    0.944138    0.547420    0.710059
 O    0.108688    0.172852    0.149852
 O    0.108746    0.327193    0.649865
 O    0.012342    0.742409    0.025771
Hf    0.055862    0.452580    0.289941
Hf    0.055853    0.047254    0.790039
%endblock positions_frac

fix_all_cell : true

kpoints_mp_grid 4 4 2

SYMMETRY_GENERATE

%block species_pot
Hf   Hf_00PBE_OP.recpot
O   O_00PBE_OP.recpot
%endblock species_pot
