%block LATTICE_ABC
10.840000 10.840000 20.704614
90.000000 90.000000 90.000000
%endblock LATTICE_ABC

%block positions_frac
Si    0.071601    0.149390    0.333099
Si    0.457165    0.083311    0.203617
Si    0.280955    0.284131    0.173568
Si    0.272980    0.409414    0.371279
Si    0.773808    0.956343    0.320164
Si    0.294806    0.058076    0.040815
 O    0.141018    0.012957    0.287459
 O    0.352021    0.151710    0.164032
 O    0.893338    0.510283    0.380006
 O    0.212395    0.328418    0.105892
 O    0.119277    0.078677    0.172436
 O    0.461198    0.922998    0.195080
 O    0.928453    0.987104    0.341968
 O    0.166581    0.325739    0.219580
 O    0.192145    0.445485    0.439011
 O    0.308558    0.953162    0.085671
 O    0.386180    0.409165    0.185749
 O    0.246058    0.228442    0.362698
Si    0.221435    0.699483    0.340792
Si    0.467070    0.595611    0.071516
Si    0.231249    0.791215    0.101965
Si    0.394245    0.870025    0.409975
Si    0.526989    0.465869    0.208591
Si    0.206153    0.443785    0.046561
 O    0.211464    0.488310    0.310608
 O    0.363040    0.717691    0.086506
 O    0.884803    0.923848    0.478423
 O    0.055366    0.852873    0.063705
 O    0.126218    0.610971    0.096977
 O    0.508453    0.551880    0.157735
 O    0.139044    0.677842    0.423141
 O    0.212335    0.808467    0.183023
 O    0.313640    0.924652    0.471280
 O    0.372861    0.474252    0.053619
 O    0.623648    0.875592    0.311541
 O    0.377574    0.717139    0.377698
Si    0.664697    0.228735    0.297946
Si    0.988469    0.107392    0.160161
Si    0.742412    0.310464    0.143313
Si    0.872582    0.365335    0.362030
Si    0.124687    0.876114    0.236230
Si    0.669233    0.019370    0.100550
 O    0.754610    0.102380    0.275137
 O    0.909344    0.224175    0.170526
 O    0.421256    0.442335    0.365855
 O    0.712627    0.359334    0.072491
 O    0.607696    0.135402    0.143913
 O    0.974813    0.932002    0.199835
 O    0.557856    0.165252    0.372768
 O    0.644019    0.348963    0.211537
 O    0.728679    0.453916    0.457539
 O    0.898179    0.076137    0.083204
 O    0.011264    0.328509    0.300354
 O    0.746926    0.349987    0.330135
Si    0.647805    0.736982    0.282070
Si    0.940788    0.564546    0.137622
Si    0.831348    0.832189    0.182814
Si    0.698319    0.929076    0.458240
Si    0.084755    0.442177    0.250053
Si    0.716420    0.533126    0.517285
 O    0.619750    0.571091    0.247234
 O    0.906953    0.701941    0.162231
 O    0.370191    0.990349    0.359003
 O    0.727365    0.903784    0.132325
 O    0.641014    0.629355    0.084216
 O    0.989054    0.527680    0.209661
 O    0.587610    0.653090    0.344873
 O    0.775403    0.815745    0.259514
 O    0.660389    0.005674    0.521887
 O    0.836747    0.466625    0.115588
 O    0.139339    0.753631    0.294004
 O    0.769188    0.941473    0.399459
Si    0.993466    0.982609    0.524231
 O    0.080194    0.477364    0.525081
 O    0.936620    0.238847    0.387349
Si    0.010785    0.605583    0.445125
 O    0.126246    0.095710    0.502914
 O    0.860345    0.638997    0.476304
Si    0.402717    0.134745    0.371877
 O    0.562930    0.570584    0.478798
 O    0.364092    0.163668    0.487143
Si    0.517347    0.551648    0.393938
 O    0.499528    0.191123    0.270507
 O    0.550280    0.871152    0.442300
Hf    0.119761    0.979607    0.569740
Hf    0.838525    0.229607    0.590988
Hf    0.880239    0.020393    0.970916
Hf    0.161475    0.770393    0.949668
 O    0.003761    0.837561    0.606308
 O    0.954525    0.087561    0.554421
 O    0.996239    0.162439    0.934349
 O    0.045475    0.912439    0.986236
 O    0.186678    0.121741    0.637588
 O    0.771608    0.871741    0.523140
 O    0.813322    0.878259    0.903068
 O    0.228392    0.128259    1.017516
Hf    0.119761    0.477629    0.569740
Hf    0.838525    0.727629    0.590988
Hf    0.880239    0.518416    0.970916
Hf    0.161475    0.268416    0.949668
 O    0.003761    0.335583    0.606308
 O    0.954525    0.585583    0.554421
 O    0.996239    0.660462    0.934349
 O    0.045475    0.410462    0.986236
 O    0.186678    0.619763    0.637588
 O    0.771608    0.369763    0.523140
 O    0.813322    0.376282    0.903068
 O    0.228392    0.626282    1.017516
Hf    0.619761    0.979607    0.569740
Hf    0.338525    0.229607    0.590988
Hf    0.380239    0.020393    0.970916
Hf    0.661475    0.770393    0.949668
 O    0.503761    0.837561    0.606308
 O    0.454525    0.087561    0.554421
 O    0.496239    0.162439    0.934349
 O    0.545475    0.912439    0.986236
 O    0.686678    0.121741    0.637588
 O    0.271608    0.871741    0.523140
 O    0.313322    0.878259    0.903068
 O    0.728392    0.128259    1.017516
Hf    0.619761    0.477629    0.569740
Hf    0.338525    0.727629    0.590988
Hf    0.380239    0.518416    0.970916
Hf    0.661475    0.268416    0.949668
 O    0.503761    0.335583    0.606308
 O    0.454525    0.585583    0.554421
 O    0.496239    0.660462    0.934349
 O    0.545475    0.410462    0.986236
 O    0.686678    0.619763    0.637588
 O    0.271608    0.369763    0.523140
 O    0.313322    0.376282    0.903068
 O    0.728392    0.626282    1.017516
Hf    0.035351    0.979607    0.823052
Hf    0.754115    0.229607    0.844300
Hf    0.795829    0.020393    0.717604
Hf    0.077065    0.770393    0.696356
 O    0.919351    0.837561    0.859620
 O    0.870115    0.087561    0.807733
 O    0.911829    0.162439    0.681036
 O    0.961065    0.912439    0.732923
 O    0.102268    0.121741    0.890900
 O    0.687198    0.871741    0.776453
 O    0.728912    0.878259    0.649756
 O    0.143982    0.128259    0.764204
Hf    0.035351    0.477629    0.823052
Hf    0.754115    0.727629    0.844300
Hf    0.795829    0.518416    0.717604
Hf    0.077065    0.268416    0.696356
 O    0.919351    0.335583    0.859620
 O    0.870115    0.585583    0.807733
 O    0.911829    0.660462    0.681036
 O    0.961065    0.410462    0.732923
 O    0.102268    0.619763    0.890900
 O    0.687198    0.369763    0.776453
 O    0.728912    0.376282    0.649756
 O    0.143982    0.626282    0.764204
Hf    0.535351    0.979607    0.823052
Hf    0.254115    0.229607    0.844300
Hf    0.295829    0.020393    0.717604
Hf    0.577065    0.770393    0.696356
 O    0.419351    0.837561    0.859620
 O    0.370115    0.087561    0.807733
 O    0.411829    0.162439    0.681036
 O    0.461065    0.912439    0.732923
 O    0.602268    0.121741    0.890900
 O    0.187198    0.871741    0.776453
 O    0.228912    0.878259    0.649756
 O    0.643982    0.128259    0.764204
Hf    0.535351    0.477629    0.823052
Hf    0.254115    0.727629    0.844300
Hf    0.295829    0.518416    0.717604
Hf    0.577065    0.268416    0.696356
 O    0.419351    0.335583    0.859620
 O    0.370115    0.585583    0.807733
 O    0.411829    0.660462    0.681036
 O    0.461065    0.410462    0.732923
 O    0.602268    0.619763    0.890900
 O    0.187198    0.369763    0.776453
 O    0.228912    0.376282    0.649756
 O    0.643982    0.626282    0.764204
%endblock positions_frac

fix_all_cell : true

kpoints_mp_grid 4 4 2

SYMMETRY_GENERATE

%block species_pot
Si   Si_00PBE_OP.recpot
Hf   Hf_00PBE_OP.recpot
O   O_00PBE_OP.recpot
%endblock species_pot
