%block LATTICE_ABC
10.840000 10.840000 26.299882
90.000000 90.000000 90.000000
%endblock LATTICE_ABC

%block positions_frac
Si    0.062537    0.062537    0.025776
Si    0.312537    0.312537    0.025776
Si    0.187537    0.437537    0.077297
Si    0.437537    0.187537    0.077297
Si    0.062537    0.312537    0.128818
Si    0.312537    0.062537    0.128818
Si    0.187537    0.187537    0.180339
Si    0.437537    0.437537    0.180339
Si    0.062537    0.062537    0.231860
Si    0.312537    0.312537    0.231860
Si    0.187537    0.437537    0.283381
Si    0.437537    0.187537    0.283381
Si    0.062537    0.312537    0.334903
Si    0.312537    0.062537    0.334903
Si    0.187537    0.187537    0.386424
Si    0.437537    0.437537    0.386424
Si    0.062537    0.562537    0.025776
Si    0.312537    0.812537    0.025776
Si    0.187537    0.937537    0.077297
Si    0.437537    0.687537    0.077297
Si    0.062537    0.812537    0.128818
Si    0.312537    0.562537    0.128818
Si    0.187537    0.687537    0.180339
Si    0.437537    0.937537    0.180339
Si    0.062537    0.562537    0.231860
Si    0.312537    0.812537    0.231860
Si    0.187537    0.937537    0.283381
Si    0.437537    0.687537    0.283381
Si    0.062537    0.812537    0.334903
Si    0.312537    0.562537    0.334903
Si    0.187537    0.687537    0.386424
Si    0.437537    0.937537    0.386424
Si    0.562537    0.062537    0.025776
Si    0.812537    0.312537    0.025776
Si    0.687537    0.437537    0.077297
Si    0.937537    0.187537    0.077297
Si    0.562537    0.312537    0.128818
Si    0.812537    0.062537    0.128818
Si    0.687537    0.187537    0.180339
Si    0.937537    0.437537    0.180339
Si    0.562537    0.062537    0.231860
Si    0.812537    0.312537    0.231860
Si    0.687537    0.437537    0.283381
Si    0.937537    0.187537    0.283381
Si    0.562537    0.312537    0.334903
Si    0.812537    0.062537    0.334903
Si    0.687537    0.187537    0.386424
Si    0.937537    0.437537    0.386424
Si    0.562537    0.562537    0.025776
Si    0.812537    0.812537    0.025776
Si    0.687537    0.937537    0.077297
Si    0.937537    0.687537    0.077297
Si    0.562537    0.812537    0.128818
Si    0.812537    0.562537    0.128818
Si    0.687537    0.687537    0.180339
Si    0.937537    0.937537    0.180339
Si    0.562537    0.562537    0.231860
Si    0.812537    0.812537    0.231860
Si    0.687537    0.937537    0.283381
Si    0.937537    0.687537    0.283381
Si    0.562537    0.812537    0.334903
Si    0.812537    0.562537    0.334903
Si    0.687537    0.687537    0.386424
Si    0.937537    0.937537    0.386424
Si    0.071601    0.149390    0.642462
Si    0.457165    0.083311    0.540528
Si    0.280955    0.284131    0.516872
Si    0.272980    0.409414    0.672519
Si    0.773808    0.956343    0.632280
Si    0.294806    0.058076    0.412361
 O    0.141018    0.012957    0.606532
 O    0.352021    0.151710    0.509364
 O    0.893338    0.510283    0.679390
 O    0.212395    0.328418    0.463593
 O    0.119277    0.078677    0.515980
 O    0.461198    0.922998    0.533807
 O    0.928453    0.987104    0.649444
 O    0.166581    0.325739    0.553094
 O    0.192145    0.445485    0.725842
 O    0.308558    0.953162    0.447675
 O    0.386180    0.409165    0.526461
 O    0.246058    0.228442    0.665764
Si    0.221435    0.699483    0.648518
Si    0.467070    0.595611    0.436531
Si    0.231249    0.791215    0.460502
Si    0.394245    0.870025    0.702983
Si    0.526989    0.465869    0.544443
Si    0.206153    0.443785    0.416885
 O    0.211464    0.488310    0.624756
 O    0.363040    0.717691    0.448332
 O    0.884803    0.923848    0.756869
 O    0.055366    0.852873    0.430382
 O    0.126218    0.610971    0.456575
 O    0.508453    0.551880    0.504407
 O    0.139044    0.677842    0.713348
 O    0.212335    0.808467    0.524315
 O    0.313640    0.924652    0.751246
 O    0.372861    0.474252    0.422441
 O    0.623648    0.875592    0.625491
 O    0.377574    0.717139    0.677573
Si    0.664697    0.228735    0.614788
Si    0.988469    0.107392    0.506317
Si    0.742412    0.310464    0.493053
Si    0.872582    0.365335    0.665239
Si    0.124687    0.876114    0.566203
Si    0.669233    0.019370    0.459388
 O    0.754610    0.102380    0.596832
 O    0.909344    0.224175    0.514477
 O    0.421256    0.442335    0.668249
 O    0.712627    0.359334    0.437299
 O    0.607696    0.135402    0.493525
 O    0.974813    0.932002    0.537550
 O    0.557856    0.165252    0.673692
 O    0.644019    0.348963    0.546763
 O    0.728679    0.453916    0.740428
 O    0.898179    0.076137    0.445732
 O    0.011264    0.328509    0.616684
 O    0.746926    0.349987    0.640129
Si    0.647805    0.736982    0.602290
Si    0.940788    0.564546    0.488573
Si    0.831348    0.832189    0.524151
Si    0.698319    0.929076    0.740980
Si    0.084755    0.442177    0.577085
Si    0.716420    0.533126    0.787463
 O    0.619750    0.571091    0.574865
 O    0.906953    0.701941    0.507946
 O    0.370191    0.990349    0.662855
 O    0.727365    0.903784    0.484403
 O    0.641014    0.629355    0.446529
 O    0.989054    0.527680    0.545286
 O    0.587610    0.653090    0.651731
 O    0.775403    0.815745    0.584533
 O    0.660389    0.005674    0.791086
 O    0.836747    0.466625    0.471227
 O    0.139339    0.753631    0.611684
 O    0.769188    0.941473    0.694705
Si    0.993466    0.982609    0.792931
 O    0.080194    0.477364    0.793601
 O    0.936620    0.238847    0.685171
Si    0.010785    0.605583    0.730655
 O    0.126246    0.095710    0.776149
 O    0.860345    0.638997    0.755201
Si    0.402717    0.134745    0.672990
 O    0.562930    0.570584    0.757164
 O    0.364092    0.163668    0.763734
Si    0.517347    0.551648    0.690358
 O    0.499528    0.191123    0.593187
 O    0.550280    0.871152    0.728431
Hf    0.119761    0.979607    0.851392
Hf    0.838525    0.229607    0.868120
Hf    0.880239    0.020393    0.967798
Hf    0.161475    0.770393    0.951071
 O    0.003761    0.837561    0.880180
 O    0.954525    0.087561    0.839332
 O    0.996239    0.162439    0.939010
 O    0.045475    0.912439    0.979859
 O    0.186678    0.121741    0.904805
 O    0.771608    0.871741    0.814707
 O    0.813322    0.878259    0.914385
 O    0.228392    0.128259    1.004484
Hf    0.119761    0.477629    0.851392
Hf    0.838525    0.727629    0.868120
Hf    0.880239    0.518416    0.967798
Hf    0.161475    0.268416    0.951071
 O    0.003761    0.335583    0.880180
 O    0.954525    0.585583    0.839332
 O    0.996239    0.660462    0.939010
 O    0.045475    0.410462    0.979859
 O    0.186678    0.619763    0.904805
 O    0.771608    0.369763    0.814707
 O    0.813322    0.376282    0.914385
 O    0.228392    0.626282    1.004484
Hf    0.619761    0.979607    0.851392
Hf    0.338525    0.229607    0.868120
Hf    0.380239    0.020393    0.967798
Hf    0.661475    0.770393    0.951071
 O    0.503761    0.837561    0.880180
 O    0.454525    0.087561    0.839332
 O    0.496239    0.162439    0.939010
 O    0.545475    0.912439    0.979859
 O    0.686678    0.121741    0.904805
 O    0.271608    0.871741    0.814707
 O    0.313322    0.878259    0.914385
 O    0.728392    0.128259    1.004484
Hf    0.619761    0.477629    0.851392
Hf    0.338525    0.727629    0.868120
Hf    0.380239    0.518416    0.967798
Hf    0.661475    0.268416    0.951071
 O    0.503761    0.335583    0.880180
 O    0.454525    0.585583    0.839332
 O    0.496239    0.660462    0.939010
 O    0.545475    0.410462    0.979859
 O    0.686678    0.619763    0.904805
 O    0.271608    0.369763    0.814707
 O    0.313322    0.376282    0.914385
 O    0.728392    0.626282    1.004484
%endblock positions_frac

fix_all_cell : true

kpoints_mp_grid 4 4 2

SYMMETRY_GENERATE

%block species_pot
Si   Si_00PBE_OP.recpot
Hf   Hf_00PBE_OP.recpot
O   O_00PBE_OP.recpot
%endblock species_pot
