%block LATTICE_ABC
10.840000 10.840000 18.845700
90.000000 90.000000 90.000000
%endblock LATTICE_ABC

%block positions_frac
Si    0.062537    0.062537    0.035971
Si    0.312537    0.312537    0.035971
Si    0.187537    0.437537    0.107871
Si    0.437537    0.187537    0.107871
Si    0.062537    0.312537    0.179770
Si    0.312537    0.062537    0.179770
Si    0.187537    0.187537    0.251670
Si    0.437537    0.437537    0.251670
Si    0.062537    0.562537    0.035971
Si    0.312537    0.812537    0.035971
Si    0.187537    0.937537    0.107871
Si    0.437537    0.687537    0.107871
Si    0.062537    0.812537    0.179770
Si    0.312537    0.562537    0.179770
Si    0.187537    0.687537    0.251670
Si    0.437537    0.937537    0.251670
Si    0.562537    0.062537    0.035971
Si    0.812537    0.312537    0.035971
Si    0.687537    0.437537    0.107871
Si    0.937537    0.187537    0.107871
Si    0.562537    0.312537    0.179770
Si    0.812537    0.062537    0.179770
Si    0.687537    0.187537    0.251670
Si    0.937537    0.437537    0.251670
Si    0.562537    0.562537    0.035971
Si    0.812537    0.812537    0.035971
Si    0.687537    0.937537    0.107871
Si    0.937537    0.687537    0.107871
Si    0.562537    0.812537    0.179770
Si    0.812537    0.562537    0.179770
Si    0.687537    0.687537    0.251670
Si    0.937537    0.937537    0.251670
Si    0.062537    0.062537    0.323570
Si    0.312537    0.312537    0.323570
Si    0.187537    0.437537    0.395470
Si    0.437537    0.187537    0.395470
Si    0.062537    0.562537    0.323570
Si    0.312537    0.812537    0.323570
Si    0.187537    0.937537    0.395470
Si    0.437537    0.687537    0.395470
Si    0.562537    0.062537    0.323570
Si    0.812537    0.312537    0.323570
Si    0.687537    0.437537    0.395470
Si    0.937537    0.187537    0.395470
Si    0.562537    0.562537    0.323570
Si    0.812537    0.812537    0.323570
Si    0.687537    0.937537    0.395470
Si    0.937537    0.687537    0.395470
Si    0.986512    0.270038    0.800598
Si    0.568682    0.006211    0.531768
Si    0.357430    0.352767    0.616554
Si    0.259728    0.417207    0.755979
Si    0.429170    0.074930    0.668211
Si    0.240603    0.974088    0.499149
 O    0.985127    0.174903    0.724869
 O    0.451184    0.215157    0.632813
 O    0.819977    0.322953    0.822535
 O    0.278265    0.337816    0.539229
 O    0.134889    0.043619    0.551178
 O    0.532927    0.971780    0.610460
 O    0.045759    0.177657    0.864865
 O    0.231397    0.346078    0.677417
 O    0.292940    0.539595    0.820044
 O    0.409775    0.022161    0.501040
 O    0.386215    0.478117    0.683277
 O    0.083151    0.394682    0.772232
Si    0.006378    0.778626    0.789943
Si    0.559473    0.506748    0.494308
Si    0.302784    0.689956    0.546932
Si    0.256154    0.946276    0.765743
Si    0.509701    0.609328    0.652607
Si    0.293796    0.356508    0.452742
 O    0.026412    0.679267    0.727942
 O    0.414348    0.637533    0.495833
 O    0.855077    0.827063    0.792303
 O    0.237719    0.814590    0.520780
 O    0.156036    0.605354    0.539481
 O    0.508633    0.427896    0.593866
 O    0.072606    0.673605    0.856002
 O    0.379595    0.700318    0.620286
 O    0.279399    0.037578    0.835128
 O    0.468463    0.390269    0.455291
 O    0.293041    0.998132    0.688559
 O    0.108832    0.909996    0.773602
Si    0.495478    0.251292    0.798885
Si    0.960388    0.079192    0.539907
Si    0.627543    0.272626    0.598946
Si    0.731667    0.434276    0.790915
Si    0.855497    0.125161    0.675592
Si    0.783863    0.928444    0.962533
 O    0.513048    0.120484    0.739334
 O    0.924673    0.234958    0.527335
 O    0.350156    0.293894    0.793785
 O    0.696785    0.386348    0.530126
 O    0.632620    0.152229    0.544944
 O    0.899241    0.031499    0.610562
 O    0.568759    0.216955    0.873215
 O    0.745427    0.241407    0.652466
 O    0.740763    0.569601    0.849388
 O    0.916910    0.975591    0.468144
 O    0.794974    0.506805    0.719363
 O    0.586629    0.375116    0.766809
Si    0.501027    0.764227    0.790961
Si    0.989087    0.581551    0.527942
Si    0.749122    0.754263    0.563014
Si    0.753366    0.941009    0.793251
Si    0.911688    0.602352    0.681009
Si    0.847713    0.349614    0.483240
 O    0.556994    0.678547    0.724283
 O    0.878111    0.688159    0.516611
 O    0.343420    0.815925    0.782287
 O    0.693577    0.888911    0.517857
 O    0.623821    0.628871    0.577520
 O    0.954242    0.541912    0.608888
 O    0.536513    0.715336    0.875860
 O    0.837727    0.749436    0.639810
 O    0.774705    0.028687    0.878923
 O    0.943825    0.464018    0.478862
 O    0.770535    0.038386    0.736735
 O    0.607594    0.881268    0.790218
Si    0.188476    0.115513    0.899217
 O    0.274076    0.228386    0.951249
 O    0.182118    0.994413    0.956424
Si    0.209330    0.612265    0.888573
 O    0.284630    0.716210    0.926025
 O    0.203878    0.476193    0.949702
Si    0.708316    0.171889    0.909101
 O    0.805186    0.278283    0.954397
 O    0.676661    0.038113    0.974691
Si    0.659945    0.661338    0.911793
 O    0.779037    0.784874    0.931823
 O    0.649092    0.579090    0.982025
%endblock positions_frac

fix_all_cell : true

kpoints_mp_grid 4 4 2

SYMMETRY_GENERATE

%block species_pot
Si   Si_00PBE_OP.recpot
O   O_00PBE_OP.recpot
%endblock species_pot
