%block LATTICE_ABC
5.420000 5.420000 19.000000
90.000000 90.000000 90.000000
%endblock LATTICE_ABC

%block positions_frac
Si    0.125074    0.125074    0.035679
Si    0.625074    0.625074    0.035679
Si    0.375074    0.875074    0.106995
Si    0.875074    0.375074    0.106995
Si    0.125074    0.625074    0.178311
Si    0.625074    0.125074    0.178311
Si    0.375074    0.375074    0.249626
Si    0.875074    0.875074    0.249626
Si    1.594313    1.827765    0.409657
Si    2.094313    1.827765    0.633672
Si    1.594313    2.161165    0.619425
Si    2.094313    2.161165    0.395410
Si    2.296613    1.494465    0.514541
Si    1.796613    1.494465    0.738556
 O    1.488813    1.707565    0.481611
 O    1.887913    2.040865    0.607059
 O    1.387913    2.040865    0.383089
 O    1.608413    2.374265    0.678968
 O    1.387913    1.948065    0.646038
 O    2.108413    1.614665    0.574129
 O    1.608413    1.614665    0.350114
 O    1.488813    2.281365    0.547471
 O    1.988813    2.281365    0.323456
 O    1.979413    1.698965    0.701593
 O    2.126713    2.365665    0.454864
 O    1.879113    1.956665    0.417856
%endblock positions_frac

fix_all_cell : true

kpoints_mp_grid 2 2 2

SYMMETRY_GENERATE

%block species_pot
Si   Si_00PBE_OP.recpot
O   O_00PBE_OP.recpot
%endblock species_pot
